experiments/sat_smt/run/sat-r/results/david.res
solved=true
solvingTime=48.577030181884765625
nActions=7