experiments/sat_smt/run/sat-r/results/david.out
Timesteps: 1
s UNSATISFIABLE
real 0.33
user 0.04
sys 0.00
Timesteps: 2
s UNSATISFIABLE
real 0.37
user 0.09
sys 0.01
Timesteps: 3
s UNSATISFIABLE
real 0.55
user 0.31
sys 0.02
Timesteps: 4
s UNSATISFIABLE
real 1.23
user 1.04
sys 0.01
Timesteps: 5
s UNSATISFIABLE
real 3.84
user 3.56
sys 0.03
Timesteps: 6
s UNSATISFIABLE
real 10.49
user 10.13
sys 0.03
Timesteps: 7
s SATISFIABLE
real 32.04
user 30.92
sys 0.10
